55990
35, 38, 8, 44, 49, 26, 55, 28, 3, 6, 30, 4, 18, 42, 33, 1, 27, 31, 25, 11, 45, 52, 15, 36, 46, 39, 16, 2, 14, 9, 12, 47, 54, 34, 53, 10, 22, 29, 21, 23, 17, 48, 19, 32, 41, 13, 43, 40, 51, 5, 37, 7, 20, 50, 24
